(set-logic QF_S)
(declare-fun var0 () String)
(declare-fun var1 () Int)
(declare-fun var2 () String)
(declare-fun var3 () Int)
(declare-fun var4 () Int)
(declare-fun var5 () String)
(declare-fun var6 () Int)
(declare-fun var7 () String)
(assert (>= (str.len (str.at var0 var1)) (str.len (str.at var2 var3))))
(assert (> 11 var4))
(assert (<= (str.to.int (str.at var5 var6)) (str.to.int var7)))
(assert (str.in.re var5 re.allchar))
(check-sat)